33D32945 STP File, STP Format Version 1.0

SECTION Comments
Name "edge_n10_d4_s25"
Problem "Euclidean Steiner Tree Problem"
Remark "Generated with STPGenerator. 4 dimensions."
END

SECTION Graph
Nodes 10
END

SECTION Coordinates
DDDD 0 0.9393561920 0.9393561920 0.9393561920 0.9393561920
DDDD 1 0.8057392150 0.8057392150 0.8057392150 0.8057392150
DDDD 2 0.0423321780 0.0423321780 0.0423321780 0.0423321780
DDDD 3 0.9785602656 0.9785602656 0.9785602656 0.9785602656
DDDD 4 0.3255712615 0.3255712615 0.3255712615 0.3255712615
DDDD 5 0.9922046186 0.9922046186 0.9922046186 0.9922046186
DDDD 6 0.9965749998 0.9965749998 0.9965749998 0.9965749998
DDDD 7 0.8456901428 0.8456901428 0.8456901428 0.8456901428
DDDD 8 0.1036064635 0.1036064635 0.1036064635 0.1036064635
DDDD 9 0.5821549858 0.5821549858 0.5821549858 0.5821549858
END
